2
120 3
35
31 1 1
33 1 3
34 1 1
35 1 5
36 1 2
38 1 1
40 1 1
41 1 2
43 1 1
44 1 1
46 1 1
48 1 1
54 1 1
56 1 1
57 1 1
58 1 1
61 1 2
63 1 1
65 1 1
67 1 1
68 1 2
71 1 1
74 1 1
75 1 2
77 1 3
78 1 1
79 1 1
83 1 1
86 1 1
89 1 2
91 1 1
93 1 1
94 1 1
96 1 1
97 1 2
